
# variable filename string '020215a'

variable restartfile string ${filename}.quenched.restart
#variable traj_file string ${file}.minimize.traj.xyz
#variable data_file string 190514a_SiO2_alpha.dat # Where to read the structure
variable data_file string ${filename}_Si.dat # Where to read the structure

dimension 3
log ${filename}_quench.log
boundary p p p
units metal
atom_style atomic

pair_style sw
read_data ${data_file}
pair_coeff * * Si_vbwm.sw Si  
# pair_coeff * * Si.sw Si  

min_style cg
min_modify line quadratic
# displace_atoms all random 0.01 0.01 0.01 2342432
thermo 100
# thermo_modify flush yes
# fix FIX_FORCE_Z fixed setforce NULL NULL 0
# fix boxrelax all box/relax iso 0.0 vmax 0.001
#dump minim_coords all xyz 100 ${traj_file}
#dump_modify minim_coords element Si
# min_modify dmax 0.2
minimize 0 1.0e-1 1000 1000
# quit
variable seed1 equal 3423435
variable seed2 equal 23422327
variable seed3 equal 8760859

variable Tquench equal 2400
variable Tfinal equal 300

variable Tdamp equal 0.5
variable Pquench equal 1
variable Pdamp equal 0.5

variable steps_heating equal 500000
variable steps_quench equal 700000
variable steps_cooled equal 500000

fix NVE all nve
timestep 0.0025
neigh_modify delay 0 every 1
thermo 1000

velocity all create ${Tquench} 4928459 dist gaussian

thermo_style custom step temp etotal press cpu cpuremain

fix NVT0 all langevin ${Tquench} ${Tquench} ${Tdamp} ${seed1} # zero yes
# fix NPT0 all npt temp 0.1 ${Tquench} ${Tdamp} iso 0.1 ${Pquench} ${Pdamp}
# fix NPH0 all nph aniso 1 1 ${Pdamp}
# fix LANGEVIN all langevin 
dump quench_coords all xyz 10000 ${filename}_traj_quench.xyz
dump_modify quench_coords element Si

run ${steps_heating}
#unfix NPH0
unfix NVT0
write_restart ${filename}.heated.restart
#fix NPT1 all npt temp ${Tquench} ${Tquench} ${Tdamp} iso ${Pquench} ${Pquench} ${Pdamp}
fix NVT1 all langevin ${Tquench} ${Tfinal} ${Tdamp} ${seed2} 
run ${steps_quench}
#undump quench_coords
unfix NVT1
write_restart ${filename}.cooled.restart

unfix NVE
fix NPH2 all nph iso 0 0 ${Pdamp}
fix NVT2 all langevin ${Tfinal} ${Tfinal} ${Tdamp} ${seed3} 
thermo_style custom step temp pe press density cpuremain
# dump cooled_coords all xyz 100 ${filename}_traj_cooled.xyz
# dump_modify cooled_coords element Si
restart 1000000 ${filename}.*.quench.restart
run ${steps_cooled}
# undump cooled_coords
#unfix NPT2
# undump quench_coords
# Minimize for the force constant calculation
minimize 0 1.0e-3 1000 1000

dump coords all xyz 1 ${filename}_quenched_coords.xyz
dump_modify coords sort id # Important for SED calculation
run 0
undump coords
write_restart ${restartfile}
# quit

variable v1 equal xlo
variable v2 equal xhi
variable v3 equal ylo
variable v4 equal yhi
variable v5 equal zlo
variable v6 equal zhi
print "The system boundaries are "
print "${v1} ${v2}"
print "${v3} ${v4}"
print "${v5} ${v6}"

quit


